
Gurobi 12.0.2 (win64) logging started Mon Nov  3 17:46:08 2025

Set parameter LogFile to value "resultados DATA_1_n10m05b2d2\instancia_9_log.txt"
Set parameter TimeLimit to value 1800
Gurobi Optimizer version 12.0.2 build v12.0.2rc0 (win64 - Windows 10.0 (19045.2))

CPU model: Intel(R) Core(TM) i5-6300U CPU @ 2.40GHz, instruction set [SSE2|AVX|AVX2]
Thread count: 2 physical cores, 4 logical processors, using up to 4 threads

Non-default parameters:
TimeLimit  1800

Optimize a model with 145 rows, 339 columns and 3823 nonzeros
Model fingerprint: 0x62e56868
Variable types: 0 continuous, 339 integer (339 binary)
Coefficient statistics:
  Matrix range     [1e+00, 1e+00]
  Objective range  [1e-02, 2e-01]
  Bounds range     [1e+00, 1e+00]
  RHS range        [1e+00, 3e+01]
Found heuristic solution: objective 0.8880000
Presolve removed 21 rows and 144 columns
Presolve time: 0.03s
Presolved: 124 rows, 195 columns, 1676 nonzeros
Variable types: 0 continuous, 195 integer (195 binary)

Root relaxation: objective 9.720000e-01, 224 iterations, 0.01 seconds (0.00 work units)

    Nodes    |    Current Node    |     Objective Bounds      |     Work
 Expl Unexpl |  Obj  Depth IntInf | Incumbent    BestBd   Gap | It/Node Time

     0     0    0.97200    0   16    0.88800    0.97200  9.46%     -    0s
H    0     0                       0.9600000    0.97200  1.25%     -    0s
     0     0 infeasible    0         0.96000    0.96000  0.00%     -    0s

Cutting planes:
  Gomory: 7
  Clique: 5
  MIR: 2
  Zero half: 3

Explored 1 nodes (305 simplex iterations) in 0.08 seconds (0.01 work units)
Thread count was 4 (of 4 available processors)

Solution count 2: 0.96 0.888 
No other solutions better than 0.96

Optimal solution found (tolerance 1.00e-04)
Best objective 9.600000000000e-01, best bound 9.600000000000e-01, gap 0.0000%
